angiejc.lp
\ Model JSuperPoly
\ LP format - for model browsing. Use MPS format to capture full model detail.
Minimize
 
Subject To
 R0: - K_0 + RK^0_0 = 0
 R1: - K_0 + flag_0 = 0
 R2: - K_1 + RK^0_1 = 0
 R3: - K_1 + flag_1 = 0
 R4: - K_2 + RK^0_2 = 0
 R5: - K_2 + flag_2 = 0
 R6: - K_3 + RK^0_3 = 0
 R7: - K_3 + flag_3 = 0
 R8: - K_4 + RK^0_4 = 0
 R9: - K_4 + flag_4 = 0
 R10: - K_5 + RK^0_5 = 0
 R11: - K_5 + flag_5 = 0
 R12: - K_6 + RK^0_6 = 0
 R13: - K_6 + flag_6 = 0
 R14: - K_7 + RK^0_7 = 0
 R15: - K_7 + flag_7 = 0
 R16: - K_8 + RK^0_8 = 0
 R17: - K_8 + flag_8 = 0
 R18: - K_9 + RK^0_9 = 0
 R19: - K_9 + flag_9 = 0
 R20: - K_10 + RK^0_10 = 0
 R21: - K_10 + flag_10 = 0
 R22: - K_11 + RK^0_11 = 0
 R23: - K_11 + flag_11 = 0
 R24: - K_12 + RK^0_12 = 0
 R25: - K_12 + flag_12 = 0
 R26: - K_13 + RK^0_13 = 0
 R27: - K_13 + flag_13 = 0
 R28: - K_14 + RK^0_14 = 0
 R29: - K_14 + flag_14 = 0
 R30: - K_15 + RK^0_15 = 0
 R31: - K_15 + flag_15 = 0
 R32: - RK^0_0 + RK^0_0_copy1 <= 0
 R33: - RK^0_0 + RK^0_0_copy2 <= 0
 R34: RK^0_0 - RK^0_0_copy1 - RK^0_0_copy2 <= 0
 R35: - L^0_0 + L^0_0_copy1 <= 0
 R36: - L^0_0 + L^0_0_copy2 <= 0
 R37: L^0_0 - L^0_0_copy1 - L^0_0_copy2 <= 0
 R38: a^1_0 - RK^0_0_copy2 = 0
 R39: a^1_0 - L^0_0_copy2 = 0
 R40: - RK^0_1 + RK^0_1_copy1 <= 0
 R41: - RK^0_1 + RK^0_1_copy2 <= 0
 R42: RK^0_1 - RK^0_1_copy1 - RK^0_1_copy2 <= 0
 R43: - L^0_1 + L^0_1_copy1 <= 0
 R44: - L^0_1 + L^0_1_copy2 <= 0
 R45: L^0_1 - L^0_1_copy1 - L^0_1_copy2 <= 0
 R46: a^1_1 - RK^0_1_copy2 = 0
 R47: a^1_1 - L^0_1_copy2 = 0
 R48: - RK^0_2 + RK^0_2_copy1 <= 0
 R49: - RK^0_2 + RK^0_2_copy2 <= 0
 R50: RK^0_2 - RK^0_2_copy1 - RK^0_2_copy2 <= 0
 R51: - L^0_2 + L^0_2_copy1 <= 0
 R52: - L^0_2 + L^0_2_copy2 <= 0
 R53: L^0_2 - L^0_2_copy1 - L^0_2_copy2 <= 0
 R54: a^1_2 - RK^0_2_copy2 = 0
 R55: a^1_2 - L^0_2_copy2 = 0
 R56: - RK^0_3 + RK^0_3_copy1 <= 0
 R57: - RK^0_3 + RK^0_3_copy2 <= 0
 R58: RK^0_3 - RK^0_3_copy1 - RK^0_3_copy2 <= 0
 R59: - L^0_3 + L^0_3_copy1 <= 0
 R60: - L^0_3 + L^0_3_copy2 <= 0
 R61: L^0_3 - L^0_3_copy1 - L^0_3_copy2 <= 0
 R62: a^1_3 - RK^0_3_copy2 = 0
 R63: a^1_3 - L^0_3_copy2 = 0
 R64: - RK^0_4 + RK^0_4_copy1 <= 0
 R65: - RK^0_4 + RK^0_4_copy2 <= 0
 R66: RK^0_4 - RK^0_4_copy1 - RK^0_4_copy2 <= 0
 R67: - L^0_4 + L^0_4_copy1 <= 0
 R68: - L^0_4 + L^0_4_copy2 <= 0
 R69: L^0_4 - L^0_4_copy1 - L^0_4_copy2 <= 0
 R70: a^1_4 - RK^0_4_copy2 = 0
 R71: a^1_4 - L^0_4_copy2 = 0
 R72: - RK^0_5 + RK^0_5_copy1 <= 0
 R73: - RK^0_5 + RK^0_5_copy2 <= 0
 R74: RK^0_5 - RK^0_5_copy1 - RK^0_5_copy2 <= 0
 R75: - L^0_5 + L^0_5_copy1 <= 0
 R76: - L^0_5 + L^0_5_copy2 <= 0
 R77: L^0_5 - L^0_5_copy1 - L^0_5_copy2 <= 0
 R78: a^1_5 - RK^0_5_copy2 = 0
 R79: a^1_5 - L^0_5_copy2 = 0
 R80: - RK^0_6 + RK^0_6_copy1 <= 0
 R81: - RK^0_6 + RK^0_6_copy2 <= 0
 R82: RK^0_6 - RK^0_6_copy1 - RK^0_6_copy2 <= 0
 R83: - L^0_6 + L^0_6_copy1 <= 0
 R84: - L^0_6 + L^0_6_copy2 <= 0
 R85: L^0_6 - L^0_6_copy1 - L^0_6_copy2 <= 0
 R86: a^1_6 - RK^0_6_copy2 = 0
 R87: a^1_6 - L^0_6_copy2 = 0
 R88: - RK^0_7 + RK^0_7_copy1 <= 0
 R89: - RK^0_7 + RK^0_7_copy2 <= 0
 R90: RK^0_7 - RK^0_7_copy1 - RK^0_7_copy2 <= 0
 R91: - L^0_7 + L^0_7_copy1 <= 0
 R92: - L^0_7 + L^0_7_copy2 <= 0
 R93: L^0_7 - L^0_7_copy1 - L^0_7_copy2 <= 0
 R94: a^1_7 - RK^0_7_copy2 = 0
 R95: a^1_7 - L^0_7_copy2 = 0
 R96: - RK^0_8 + RK^0_8_copy1 <= 0
 R97: - RK^0_8 + RK^0_8_copy2 <= 0
 R98: RK^0_8 - RK^0_8_copy1 - RK^0_8_copy2 <= 0
 R99: - L^0_8 + L^0_8_copy1 <= 0
 R100: - L^0_8 + L^0_8_copy2 <= 0
 R101: L^0_8 - L^0_8_copy1 - L^0_8_copy2 <= 0
 R102: a^1_8 - RK^0_8_copy2 = 0
 R103: a^1_8 - L^0_8_copy2 = 0
 R104: - RK^0_9 + RK^0_9_copy1 <= 0
 R105: - RK^0_9 + RK^0_9_copy2 <= 0
 R106: RK^0_9 - RK^0_9_copy1 - RK^0_9_copy2 <= 0
 R107: - L^0_9 + L^0_9_copy1 <= 0
 R108: - L^0_9 + L^0_9_copy2 <= 0
 R109: L^0_9 - L^0_9_copy1 - L^0_9_copy2 <= 0
 R110: a^1_9 - RK^0_9_copy2 = 0
 R111: a^1_9 - L^0_9_copy2 = 0
 R112: - RK^0_10 + RK^0_10_copy1 <= 0
 R113: - RK^0_10 + RK^0_10_copy2 <= 0
 R114: RK^0_10 - RK^0_10_copy1 - RK^0_10_copy2 <= 0
 R115: - L^0_10 + L^0_10_copy1 <= 0
 R116: - L^0_10 + L^0_10_copy2 <= 0
 R117: L^0_10 - L^0_10_copy1 - L^0_10_copy2 <= 0
 R118: a^1_10 - RK^0_10_copy2 = 0
 R119: a^1_10 - L^0_10_copy2 = 0
 R120: - RK^0_11 + RK^0_11_copy1 <= 0
 R121: - RK^0_11 + RK^0_11_copy2 <= 0
 R122: RK^0_11 - RK^0_11_copy1 - RK^0_11_copy2 <= 0
 R123: - L^0_11 + L^0_11_copy1 <= 0
 R124: - L^0_11 + L^0_11_copy2 <= 0
 R125: L^0_11 - L^0_11_copy1 - L^0_11_copy2 <= 0
 R126: a^1_11 - RK^0_11_copy2 = 0
 R127: a^1_11 - L^0_11_copy2 = 0
 R128: - RK^0_12 + RK^0_12_copy1 <= 0
 R129: - RK^0_12 + RK^0_12_copy2 <= 0
 R130: RK^0_12 - RK^0_12_copy1 - RK^0_12_copy2 <= 0
 R131: - L^0_12 + L^0_12_copy1 <= 0
 R132: - L^0_12 + L^0_12_copy2 <= 0
 R133: L^0_12 - L^0_12_copy1 - L^0_12_copy2 <= 0
 R134: a^1_12 - RK^0_12_copy2 = 0
 R135: a^1_12 - L^0_12_copy2 = 0
 R136: - RK^0_13 + RK^0_13_copy1 <= 0
 R137: - RK^0_13 + RK^0_13_copy2 <= 0
 R138: RK^0_13 - RK^0_13_copy1 - RK^0_13_copy2 <= 0
 R139: - L^0_13 + L^0_13_copy1 <= 0
 R140: - L^0_13 + L^0_13_copy2 <= 0
 R141: L^0_13 - L^0_13_copy1 - L^0_13_copy2 <= 0
 R142: a^1_13 - RK^0_13_copy2 = 0
 R143: a^1_13 - L^0_13_copy2 = 0
 R144: - RK^0_14 + RK^0_14_copy1 <= 0
 R145: - RK^0_14 + RK^0_14_copy2 <= 0
 R146: RK^0_14 - RK^0_14_copy1 - RK^0_14_copy2 <= 0
 R147: - L^0_14 + L^0_14_copy1 <= 0
 R148: - L^0_14 + L^0_14_copy2 <= 0
 R149: L^0_14 - L^0_14_copy1 - L^0_14_copy2 <= 0
 R150: a^1_14 - RK^0_14_copy2 = 0
 R151: a^1_14 - L^0_14_copy2 = 0
 R152: - RK^0_15 + RK^0_15_copy1 <= 0
 R153: - RK^0_15 + RK^0_15_copy2 <= 0
 R154: RK^0_15 - RK^0_15_copy1 - RK^0_15_copy2 <= 0
 R155: - L^0_15 + L^0_15_copy1 <= 0
 R156: - L^0_15 + L^0_15_copy2 <= 0
 R157: L^0_15 - L^0_15_copy1 - L^0_15_copy2 <= 0
 R158: a^1_15 - RK^0_15_copy2 = 0
 R159: a^1_15 - L^0_15_copy2 = 0
 R160: R^0_0 - R^0_0_copy1 >= 0
 R161: R^0_0 - R^0_0_copy2 >= 0
 R162: R^0_0 - R^0_0_copy1 - R^0_0_copy2 <= 0
 R163: - b^1_0 + R^0_0_copy2 = 0
 R164: R^0_1 - R^0_1_copy1 >= 0
 R165: R^0_1 - R^0_1_copy2 >= 0
 R166: R^0_1 - R^0_1_copy1 - R^0_1_copy2 <= 0
 R167: - b^1_1 + R^0_1_copy2 = 0
 R168: R^0_2 - R^0_2_copy1 >= 0
 R169: R^0_2 - R^0_2_copy2 >= 0
 R170: R^0_2 - R^0_2_copy1 - R^0_2_copy2 <= 0
 R171: - b^1_2 + R^0_2_copy2 = 0
 R172: R^0_3 - R^0_3_copy1 >= 0
 R173: R^0_3 - R^0_3_copy2 >= 0
 R174: R^0_3 - R^0_3_copy1 - R^0_3_copy2 <= 0
 R175: - b^1_3 + R^0_3_copy2 = 0
 R176: R^0_4 - R^0_4_copy1 >= 0
 R177: R^0_4 - R^0_4_copy2 >= 0
 R178: R^0_4 - R^0_4_copy1 - R^0_4_copy2 <= 0
 R179: - b^1_4 + R^0_4_copy2 = 0
 R180: R^0_5 - R^0_5_copy1 >= 0
 R181: R^0_5 - R^0_5_copy2 >= 0
 R182: R^0_5 - R^0_5_copy1 - R^0_5_copy2 <= 0
 R183: - b^1_5 + R^0_5_copy2 = 0
 R184: R^0_6 - R^0_6_copy1 >= 0
 R185: R^0_6 - R^0_6_copy2 >= 0
 R186: R^0_6 - R^0_6_copy1 - R^0_6_copy2 <= 0
 R187: - b^1_6 + R^0_6_copy2 = 0
 R188: R^0_7 - R^0_7_copy1 >= 0
 R189: R^0_7 - R^0_7_copy2 >= 0
 R190: R^0_7 - R^0_7_copy1 - R^0_7_copy2 <= 0
 R191: - b^1_7 + R^0_7_copy2 = 0
 R192: R^0_8 - R^0_8_copy1 >= 0
 R193: R^0_8 - R^0_8_copy2 >= 0
 R194: R^0_8 - R^0_8_copy1 - R^0_8_copy2 <= 0
 R195: - b^1_8 + R^0_8_copy2 = 0
 R196: R^0_9 - R^0_9_copy1 >= 0
 R197: R^0_9 - R^0_9_copy2 >= 0
 R198: R^0_9 - R^0_9_copy1 - R^0_9_copy2 <= 0
 R199: - b^1_9 + R^0_9_copy2 = 0
 R200: R^0_10 - R^0_10_copy1 >= 0
 R201: R^0_10 - R^0_10_copy2 >= 0
 R202: R^0_10 - R^0_10_copy1 - R^0_10_copy2 <= 0
 R203: - b^1_10 + R^0_10_copy2 = 0
 R204: R^0_11 - R^0_11_copy1 >= 0
 R205: R^0_11 - R^0_11_copy2 >= 0
 R206: R^0_11 - R^0_11_copy1 - R^0_11_copy2 <= 0
 R207: - b^1_11 + R^0_11_copy2 = 0
 R208: R^0_12 - R^0_12_copy1 >= 0
 R209: R^0_12 - R^0_12_copy2 >= 0
 R210: R^0_12 - R^0_12_copy1 - R^0_12_copy2 <= 0
 R211: - b^1_12 + R^0_12_copy2 = 0
 R212: R^0_13 - R^0_13_copy1 >= 0
 R213: R^0_13 - R^0_13_copy2 >= 0
 R214: R^0_13 - R^0_13_copy1 - R^0_13_copy2 <= 0
 R215: - b^1_13 + R^0_13_copy2 = 0
 R216: R^0_14 - R^0_14_copy1 >= 0
 R217: R^0_14 - R^0_14_copy2 >= 0
 R218: R^0_14 - R^0_14_copy1 - R^0_14_copy2 <= 0
 R219: - b^1_14 + R^0_14_copy2 = 0
 R220: R^0_15 - R^0_15_copy1 >= 0
 R221: R^0_15 - R^0_15_copy2 >= 0
 R222: R^0_15 - R^0_15_copy1 - R^0_15_copy2 <= 0
 R223: - b^1_15 + R^0_15_copy2 = 0
 R224: - b^1_0 + c^1_0 >= 0
 R225: - a^1_0 - b^1_0 + c^1_0 = 0
 R226: - b^1_1 + c^1_1 >= 0
 R227: - a^1_1 - b^1_1 + c^1_1 = 0
 R228: - b^1_2 + c^1_2 >= 0
 R229: - a^1_2 - b^1_2 + c^1_2 = 0
 R230: - b^1_3 + c^1_3 >= 0
 R231: - a^1_3 - b^1_3 + c^1_3 = 0
 R232: - b^1_4 + c^1_4 >= 0
 R233: - a^1_4 - b^1_4 + c^1_4 = 0
 R234: - b^1_5 + c^1_5 >= 0
 R235: - a^1_5 - b^1_5 + c^1_5 = 0
 R236: - b^1_6 + c^1_6 >= 0
 R237: - a^1_6 - b^1_6 + c^1_6 = 0
 R238: - b^1_7 + c^1_7 >= 0
 R239: - a^1_7 - b^1_7 + c^1_7 = 0
 R240: - b^1_8 + c^1_8 >= 0
 R241: - a^1_8 - b^1_8 + c^1_8 = 0
 R242: - b^1_9 + c^1_9 >= 0
 R243: - a^1_9 - b^1_9 + c^1_9 = 0
 R244: - b^1_10 + c^1_10 >= 0
 R245: - a^1_10 - b^1_10 + c^1_10 = 0
 R246: - b^1_11 + c^1_11 >= 0
 R247: - a^1_11 - b^1_11 + c^1_11 = 0
 R248: - b^1_12 + c^1_12 >= 0
 R249: - a^1_12 - b^1_12 + c^1_12 = 0
 R250: - b^1_13 + c^1_13 >= 0
 R251: - a^1_13 - b^1_13 + c^1_13 = 0
 R252: - b^1_14 + c^1_14 >= 0
 R253: - a^1_14 - b^1_14 + c^1_14 = 0
 R254: - b^1_15 + c^1_15 >= 0
 R255: - a^1_15 - b^1_15 + c^1_15 = 0
 R256: - c^1_1 + c^1_0+1_copy1 <= 0
 R257: - c^1_1 + c^1_0+1_copy2 <= 0
 R258: c^1_1 - c^1_0+1_copy1 - c^1_0+1_copy2 <= 0
 R259: - c^1_2 + c^1_0+2_copy1 <= 0
 R260: - c^1_2 + c^1_0+2_copy2 <= 0
 R261: c^1_2 - c^1_0+2_copy1 - c^1_0+2_copy2 <= 0
 R262: d^1_0 - c^1_0+1_copy2 = 0
 R263: d^1_0 - c^1_0+2_copy2 = 0
 R264: - c^1_0+2_copy1 + c^1_1+1_copy1 <= 0
 R265: - c^1_0+2_copy1 + c^1_1+1_copy2 <= 0
 R266: c^1_0+2_copy1 - c^1_1+1_copy1 - c^1_1+1_copy2 <= 0
 R267: - c^1_3 + c^1_1+2_copy1 <= 0
 R268: - c^1_3 + c^1_1+2_copy2 <= 0
 R269: c^1_3 - c^1_1+2_copy1 - c^1_1+2_copy2 <= 0
 R270: d^1_1 - c^1_1+1_copy2 = 0
 R271: d^1_1 - c^1_1+2_copy2 = 0
 R272: - c^1_1+2_copy1 + c^1_2+1_copy1 <= 0
 R273: - c^1_1+2_copy1 + c^1_2+1_copy2 <= 0
 R274: c^1_1+2_copy1 - c^1_2+1_copy1 - c^1_2+1_copy2 <= 0
 R275: - c^1_4 + c^1_2+2_copy1 <= 0
 R276: - c^1_4 + c^1_2+2_copy2 <= 0
 R277: c^1_4 - c^1_2+2_copy1 - c^1_2+2_copy2 <= 0
 R278: d^1_2 - c^1_2+1_copy2 = 0
 R279: d^1_2 - c^1_2+2_copy2 = 0
 R280: - c^1_2+2_copy1 + c^1_3+1_copy1 <= 0
 R281: - c^1_2+2_copy1 + c^1_3+1_copy2 <= 0
 R282: c^1_2+2_copy1 - c^1_3+1_copy1 - c^1_3+1_copy2 <= 0
 R283: - c^1_5 + c^1_3+2_copy1 <= 0
 R284: - c^1_5 + c^1_3+2_copy2 <= 0
 R285: c^1_5 - c^1_3+2_copy1 - c^1_3+2_copy2 <= 0
 R286: d^1_3 - c^1_3+1_copy2 = 0
 R287: d^1_3 - c^1_3+2_copy2 = 0
 R288: - c^1_3+2_copy1 + c^1_4+1_copy1 <= 0
 R289: - c^1_3+2_copy1 + c^1_4+1_copy2 <= 0
 R290: c^1_3+2_copy1 - c^1_4+1_copy1 - c^1_4+1_copy2 <= 0
 R291: - c^1_6 + c^1_4+2_copy1 <= 0
 R292: - c^1_6 + c^1_4+2_copy2 <= 0
 R293: c^1_6 - c^1_4+2_copy1 - c^1_4+2_copy2 <= 0
 R294: d^1_4 - c^1_4+1_copy2 = 0
 R295: d^1_4 - c^1_4+2_copy2 = 0
 R296: - c^1_4+2_copy1 + c^1_5+1_copy1 <= 0
 R297: - c^1_4+2_copy1 + c^1_5+1_copy2 <= 0
 R298: c^1_4+2_copy1 - c^1_5+1_copy1 - c^1_5+1_copy2 <= 0
 R299: - c^1_7 + c^1_5+2_copy1 <= 0
 R300: - c^1_7 + c^1_5+2_copy2 <= 0
 R301: c^1_7 - c^1_5+2_copy1 - c^1_5+2_copy2 <= 0
 R302: d^1_5 - c^1_5+1_copy2 = 0
 R303: d^1_5 - c^1_5+2_copy2 = 0
 R304: - c^1_5+2_copy1 + c^1_6+1_copy1 <= 0
 R305: - c^1_5+2_copy1 + c^1_6+1_copy2 <= 0
 R306: c^1_5+2_copy1 - c^1_6+1_copy1 - c^1_6+1_copy2 <= 0
 R307: - c^1_8 + c^1_6+2_copy1 <= 0
 R308: - c^1_8 + c^1_6+2_copy2 <= 0
 R309: c^1_8 - c^1_6+2_copy1 - c^1_6+2_copy2 <= 0
 R310: d^1_6 - c^1_6+1_copy2 = 0
 R311: d^1_6 - c^1_6+2_copy2 = 0
 R312: - c^1_6+2_copy1 + c^1_7+1_copy1 <= 0
 R313: - c^1_6+2_copy1 + c^1_7+1_copy2 <= 0
 R314: c^1_6+2_copy1 - c^1_7+1_copy1 - c^1_7+1_copy2 <= 0
 R315: - c^1_9 + c^1_7+2_copy1 <= 0
 R316: - c^1_9 + c^1_7+2_copy2 <= 0
 R317: c^1_9 - c^1_7+2_copy1 - c^1_7+2_copy2 <= 0
 R318: d^1_7 - c^1_7+1_copy2 = 0
 R319: d^1_7 - c^1_7+2_copy2 = 0
 R320: - c^1_7+2_copy1 + c^1_8+1_copy1 <= 0
 R321: - c^1_7+2_copy1 + c^1_8+1_copy2 <= 0
 R322: c^1_7+2_copy1 - c^1_8+1_copy1 - c^1_8+1_copy2 <= 0
 R323: - c^1_10 + c^1_8+2_copy1 <= 0
 R324: - c^1_10 + c^1_8+2_copy2 <= 0
 R325: c^1_10 - c^1_8+2_copy1 - c^1_8+2_copy2 <= 0
 R326: d^1_8 - c^1_8+1_copy2 = 0
 R327: d^1_8 - c^1_8+2_copy2 = 0
 R328: - c^1_8+2_copy1 + c^1_9+1_copy1 <= 0
 R329: - c^1_8+2_copy1 + c^1_9+1_copy2 <= 0
 R330: c^1_8+2_copy1 - c^1_9+1_copy1 - c^1_9+1_copy2 <= 0
 R331: - c^1_11 + c^1_9+2_copy1 <= 0
 R332: - c^1_11 + c^1_9+2_copy2 <= 0
 R333: c^1_11 - c^1_9+2_copy1 - c^1_9+2_copy2 <= 0
 R334: d^1_9 - c^1_9+1_copy2 = 0
 R335: d^1_9 - c^1_9+2_copy2 = 0
 R336: - c^1_9+2_copy1 + c^1_10+1_copy1 <= 0
 R337: - c^1_9+2_copy1 + c^1_10+1_copy2 <= 0
 R338: c^1_9+2_copy1 - c^1_10+1_copy1 - c^1_10+1_copy2 <= 0
 R339: - c^1_12 + c^1_10+2_copy1 <= 0
 R340: - c^1_12 + c^1_10+2_copy2 <= 0
 R341: c^1_12 - c^1_10+2_copy1 - c^1_10+2_copy2 <= 0
 R342: d^1_10 - c^1_10+1_copy2 = 0
 R343: d^1_10 - c^1_10+2_copy2 = 0
 R344: - c^1_10+2_copy1 + c^1_11+1_copy1 <= 0
 R345: - c^1_10+2_copy1 + c^1_11+1_copy2 <= 0
 R346: c^1_10+2_copy1 - c^1_11+1_copy1 - c^1_11+1_copy2 <= 0
 R347: - c^1_13 + c^1_11+2_copy1 <= 0
 R348: - c^1_13 + c^1_11+2_copy2 <= 0
 R349: c^1_13 - c^1_11+2_copy1 - c^1_11+2_copy2 <= 0
 R350: d^1_11 - c^1_11+1_copy2 = 0
 R351: d^1_11 - c^1_11+2_copy2 = 0
 R352: - c^1_11+2_copy1 + c^1_12+1_copy1 <= 0
 R353: - c^1_11+2_copy1 + c^1_12+1_copy2 <= 0
 R354: c^1_11+2_copy1 - c^1_12+1_copy1 - c^1_12+1_copy2 <= 0
 R355: - c^1_14 + c^1_12+2_copy1 <= 0
 R356: - c^1_14 + c^1_12+2_copy2 <= 0
 R357: c^1_14 - c^1_12+2_copy1 - c^1_12+2_copy2 <= 0
 R358: d^1_12 - c^1_12+1_copy2 = 0
 R359: d^1_12 - c^1_12+2_copy2 = 0
 R360: - c^1_12+2_copy1 + c^1_13+1_copy1 <= 0
 R361: - c^1_12+2_copy1 + c^1_13+1_copy2 <= 0
 R362: c^1_12+2_copy1 - c^1_13+1_copy1 - c^1_13+1_copy2 <= 0
 R363: - c^1_15 + c^1_13+2_copy1 <= 0
 R364: - c^1_15 + c^1_13+2_copy2 <= 0
 R365: c^1_15 - c^1_13+2_copy1 - c^1_13+2_copy2 <= 0
 R366: d^1_13 - c^1_13+1_copy2 = 0
 R367: d^1_13 - c^1_13+2_copy2 = 0
 R368: e^1_0 - d^1_0 >= 0
 R369: - c^1_0 + e^1_0 - d^1_0 = 0
 R370: e^1_1 - d^1_1 >= 0
 R371: e^1_1 - d^1_1 - c^1_0+1_copy1 = 0
 R372: e^1_2 - d^1_2 >= 0
 R373: e^1_2 - d^1_2 - c^1_1+1_copy1 = 0
 R374: e^1_3 - d^1_3 >= 0
 R375: e^1_3 - d^1_3 - c^1_2+1_copy1 = 0
 R376: e^1_4 - d^1_4 >= 0
 R377: e^1_4 - d^1_4 - c^1_3+1_copy1 = 0
 R378: e^1_5 - d^1_5 >= 0
 R379: e^1_5 - d^1_5 - c^1_4+1_copy1 = 0
 R380: e^1_6 - d^1_6 >= 0
 R381: e^1_6 - d^1_6 - c^1_5+1_copy1 = 0
 R382: e^1_7 - d^1_7 >= 0
 R383: e^1_7 - d^1_7 - c^1_6+1_copy1 = 0
 R384: e^1_8 - d^1_8 >= 0
 R385: e^1_8 - d^1_8 - c^1_7+1_copy1 = 0
 R386: e^1_9 - d^1_9 >= 0
 R387: e^1_9 - d^1_9 - c^1_8+1_copy1 = 0
 R388: e^1_10 - d^1_10 >= 0
 R389: e^1_10 - d^1_10 - c^1_9+1_copy1 = 0
 R390: e^1_11 - d^1_11 >= 0
 R391: e^1_11 - d^1_11 - c^1_10+1_copy1 = 0
 R392: e^1_12 - d^1_12 >= 0
 R393: e^1_12 - d^1_12 - c^1_11+1_copy1 = 0
 R394: e^1_13 - d^1_13 >= 0
 R395: e^1_13 - d^1_13 - c^1_12+1_copy1 = 0
 R396: e^1_14 - c^1_13+1_copy1 = 0
 R397: e^1_15 - c^1_13+2_copy1 = 0
 R398: - e^1_3 + e^1_0+3_copy1 <= 0
 R399: - e^1_3 + e^1_0+3_copy2 <= 0
 R400: e^1_3 - e^1_0+3_copy1 - e^1_0+3_copy2 <= 0
 R401: - e^1_9 + e^1_0+9_copy1 <= 0
 R402: - e^1_9 + e^1_0+9_copy2 <= 0
 R403: e^1_9 - e^1_0+9_copy1 - e^1_0+9_copy2 <= 0
 R404: - e^1_14 + e^1_0+14_copy1 <= 0
 R405: - e^1_14 + e^1_0+14_copy2 <= 0
 R406: e^1_14 - e^1_0+14_copy1 - e^1_0+14_copy2 <= 0
 R407: f^1_0 - e^1_0+3_copy2 - e^1_0+9_copy2 - e^1_0+14_copy2 = 0
 R408: f^1_0 - e^1_0+9_copy2 - e^1_0+14_copy2 >= 0
 R409: - e^1_4 + e^1_1+3_copy1 <= 0
 R410: - e^1_4 + e^1_1+3_copy2 <= 0
 R411: e^1_4 - e^1_1+3_copy1 - e^1_1+3_copy2 <= 0
 R412: - e^1_10 + e^1_1+9_copy1 <= 0
 R413: - e^1_10 + e^1_1+9_copy2 <= 0
 R414: e^1_10 - e^1_1+9_copy1 - e^1_1+9_copy2 <= 0
 R415: - e^1_15 + e^1_1+14_copy1 <= 0
 R416: - e^1_15 + e^1_1+14_copy2 <= 0
 R417: e^1_15 - e^1_1+14_copy1 - e^1_1+14_copy2 <= 0
 R418: f^1_1 - e^1_1+3_copy2 - e^1_1+9_copy2 - e^1_1+14_copy2 = 0
 R419: f^1_1 - e^1_1+9_copy2 - e^1_1+14_copy2 >= 0
 R420: - e^1_5 + e^1_2+3_copy1 <= 0
 R421: - e^1_5 + e^1_2+3_copy2 <= 0
 R422: e^1_5 - e^1_2+3_copy1 - e^1_2+3_copy2 <= 0
 R423: - e^1_11 + e^1_2+9_copy1 <= 0
 R424: - e^1_11 + e^1_2+9_copy2 <= 0
 R425: e^1_11 - e^1_2+9_copy1 - e^1_2+9_copy2 <= 0
 R426: - e^1_0 + e^1_2+14_copy1 <= 0
 R427: - e^1_0 + e^1_2+14_copy2 <= 0
 R428: e^1_0 - e^1_2+14_copy1 - e^1_2+14_copy2 <= 0
 R429: f^1_2 - e^1_2+3_copy2 - e^1_2+9_copy2 - e^1_2+14_copy2 = 0
 R430: f^1_2 - e^1_2+9_copy2 - e^1_2+14_copy2 >= 0
 R431: - e^1_6 + e^1_3+3_copy1 <= 0
 R432: - e^1_6 + e^1_3+3_copy2 <= 0
 R433: e^1_6 - e^1_3+3_copy1 - e^1_3+3_copy2 <= 0
 R434: - e^1_12 + e^1_3+9_copy1 <= 0
 R435: - e^1_12 + e^1_3+9_copy2 <= 0
 R436: e^1_12 - e^1_3+9_copy1 - e^1_3+9_copy2 <= 0
 R437: - e^1_1 + e^1_3+14_copy1 <= 0
 R438: - e^1_1 + e^1_3+14_copy2 <= 0
 R439: e^1_1 - e^1_3+14_copy1 - e^1_3+14_copy2 <= 0
 R440: f^1_3 - e^1_3+3_copy2 - e^1_3+9_copy2 - e^1_3+14_copy2 = 0
 R441: f^1_3 - e^1_3+9_copy2 - e^1_3+14_copy2 >= 0
 R442: - e^1_7 + e^1_4+3_copy1 <= 0
 R443: - e^1_7 + e^1_4+3_copy2 <= 0
 R444: e^1_7 - e^1_4+3_copy1 - e^1_4+3_copy2 <= 0
 R445: - e^1_13 + e^1_4+9_copy1 <= 0
 R446: - e^1_13 + e^1_4+9_copy2 <= 0
 R447: e^1_13 - e^1_4+9_copy1 - e^1_4+9_copy2 <= 0
 R448: - e^1_2 + e^1_4+14_copy1 <= 0
 R449: - e^1_2 + e^1_4+14_copy2 <= 0
 R450: e^1_2 - e^1_4+14_copy1 - e^1_4+14_copy2 <= 0
 R451: f^1_4 - e^1_4+3_copy2 - e^1_4+9_copy2 - e^1_4+14_copy2 = 0
 R452: f^1_4 - e^1_4+9_copy2 - e^1_4+14_copy2 >= 0
 R453: - e^1_8 + e^1_5+3_copy1 <= 0
 R454: - e^1_8 + e^1_5+3_copy2 <= 0
 R455: e^1_8 - e^1_5+3_copy1 - e^1_5+3_copy2 <= 0
 R456: - e^1_0+14_copy1 + e^1_5+9_copy1 <= 0
 R457: - e^1_0+14_copy1 + e^1_5+9_copy2 <= 0
 R458: e^1_0+14_copy1 - e^1_5+9_copy1 - e^1_5+9_copy2 <= 0
 R459: - e^1_0+3_copy1 + e^1_5+14_copy1 <= 0
 R460: - e^1_0+3_copy1 + e^1_5+14_copy2 <= 0
 R461: e^1_0+3_copy1 - e^1_5+14_copy1 - e^1_5+14_copy2 <= 0
 R462: f^1_5 - e^1_5+3_copy2 - e^1_5+9_copy2 - e^1_5+14_copy2 = 0
 R463: f^1_5 - e^1_5+9_copy2 - e^1_5+14_copy2 >= 0
 R464: - e^1_0+9_copy1 + e^1_6+3_copy1 <= 0
 R465: - e^1_0+9_copy1 + e^1_6+3_copy2 <= 0
 R466: e^1_0+9_copy1 - e^1_6+3_copy1 - e^1_6+3_copy2 <= 0
 R467: - e^1_1+14_copy1 + e^1_6+9_copy1 <= 0
 R468: - e^1_1+14_copy1 + e^1_6+9_copy2 <= 0
 R469: e^1_1+14_copy1 - e^1_6+9_copy1 - e^1_6+9_copy2 <= 0
 R470: - e^1_1+3_copy1 + e^1_6+14_copy1 <= 0
 R471: - e^1_1+3_copy1 + e^1_6+14_copy2 <= 0
 R472: e^1_1+3_copy1 - e^1_6+14_copy1 - e^1_6+14_copy2 <= 0
 R473: f^1_6 - e^1_6+3_copy2 - e^1_6+9_copy2 - e^1_6+14_copy2 = 0
 R474: f^1_6 - e^1_6+9_copy2 - e^1_6+14_copy2 >= 0
 R475: - e^1_1+9_copy1 + e^1_7+3_copy1 <= 0
 R476: - e^1_1+9_copy1 + e^1_7+3_copy2 <= 0
 R477: e^1_1+9_copy1 - e^1_7+3_copy1 - e^1_7+3_copy2 <= 0
 R478: - e^1_2+14_copy1 + e^1_7+9_copy1 <= 0
 R479: - e^1_2+14_copy1 + e^1_7+9_copy2 <= 0
 R480: e^1_2+14_copy1 - e^1_7+9_copy1 - e^1_7+9_copy2 <= 0
 R481: - e^1_2+3_copy1 + e^1_7+14_copy1 <= 0
 R482: - e^1_2+3_copy1 + e^1_7+14_copy2 <= 0
 R483: e^1_2+3_copy1 - e^1_7+14_copy1 - e^1_7+14_copy2 <= 0
 R484: f^1_7 - e^1_7+3_copy2 - e^1_7+9_copy2 - e^1_7+14_copy2 = 0
 R485: f^1_7 - e^1_7+9_copy2 - e^1_7+14_copy2 >= 0
 R486: - e^1_2+9_copy1 + e^1_8+3_copy1 <= 0
 R487: - e^1_2+9_copy1 + e^1_8+3_copy2 <= 0
 R488: e^1_2+9_copy1 - e^1_8+3_copy1 - e^1_8+3_copy2 <= 0
 R489: - e^1_3+14_copy1 + e^1_8+9_copy1 <= 0
 R490: - e^1_3+14_copy1 + e^1_8+9_copy2 <= 0
 R491: e^1_3+14_copy1 - e^1_8+9_copy1 - e^1_8+9_copy2 <= 0
 R492: - e^1_3+3_copy1 + e^1_8+14_copy1 <= 0
 R493: - e^1_3+3_copy1 + e^1_8+14_copy2 <= 0
 R494: e^1_3+3_copy1 - e^1_8+14_copy1 - e^1_8+14_copy2 <= 0
 R495: f^1_8 - e^1_8+3_copy2 - e^1_8+9_copy2 - e^1_8+14_copy2 = 0
 R496: f^1_8 - e^1_8+9_copy2 - e^1_8+14_copy2 >= 0
 R497: - e^1_3+9_copy1 + e^1_9+3_copy1 <= 0
 R498: - e^1_3+9_copy1 + e^1_9+3_copy2 <= 0
 R499: e^1_3+9_copy1 - e^1_9+3_copy1 - e^1_9+3_copy2 <= 0
 R500: - e^1_4+14_copy1 + e^1_9+9_copy1 <= 0
 R501: - e^1_4+14_copy1 + e^1_9+9_copy2 <= 0
 R502: e^1_4+14_copy1 - e^1_9+9_copy1 - e^1_9+9_copy2 <= 0
 R503: - e^1_4+3_copy1 + e^1_9+14_copy1 <= 0
 R504: - e^1_4+3_copy1 + e^1_9+14_copy2 <= 0
 R505: e^1_4+3_copy1 - e^1_9+14_copy1 - e^1_9+14_copy2 <= 0
 R506: f^1_9 - e^1_9+3_copy2 - e^1_9+9_copy2 - e^1_9+14_copy2 = 0
 R507: f^1_9 - e^1_9+9_copy2 - e^1_9+14_copy2 >= 0
 R508: - e^1_4+9_copy1 + e^1_10+3_copy1 <= 0
 R509: - e^1_4+9_copy1 + e^1_10+3_copy2 <= 0
 R510: e^1_4+9_copy1 - e^1_10+3_copy1 - e^1_10+3_copy2 <= 0
 R511: - e^1_5+14_copy1 + e^1_10+9_copy1 <= 0
 R512: - e^1_5+14_copy1 + e^1_10+9_copy2 <= 0
 R513: e^1_5+14_copy1 - e^1_10+9_copy1 - e^1_10+9_copy2 <= 0
 R514: - e^1_5+3_copy1 + e^1_10+14_copy1 <= 0
 R515: - e^1_5+3_copy1 + e^1_10+14_copy2 <= 0
 R516: e^1_5+3_copy1 - e^1_10+14_copy1 - e^1_10+14_copy2 <= 0
 R517: f^1_10 - e^1_10+3_copy2 - e^1_10+9_copy2 - e^1_10+14_copy2 = 0
 R518: f^1_10 - e^1_10+9_copy2 - e^1_10+14_copy2 >= 0
 R519: - e^1_5+9_copy1 + e^1_11+3_copy1 <= 0
 R520: - e^1_5+9_copy1 + e^1_11+3_copy2 <= 0
 R521: e^1_5+9_copy1 - e^1_11+3_copy1 - e^1_11+3_copy2 <= 0
 R522: - e^1_6+14_copy1 + e^1_11+9_copy1 <= 0
 R523: - e^1_6+14_copy1 + e^1_11+9_copy2 <= 0
 R524: e^1_6+14_copy1 - e^1_11+9_copy1 - e^1_11+9_copy2 <= 0
 R525: - e^1_6+3_copy1 + e^1_11+14_copy1 <= 0
 R526: - e^1_6+3_copy1 + e^1_11+14_copy2 <= 0
 R527: e^1_6+3_copy1 - e^1_11+14_copy1 - e^1_11+14_copy2 <= 0
 R528: f^1_11 - e^1_11+3_copy2 - e^1_11+9_copy2 - e^1_11+14_copy2 = 0
 R529: f^1_11 - e^1_11+9_copy2 - e^1_11+14_copy2 >= 0
 R530: - e^1_6+9_copy1 + e^1_12+3_copy1 <= 0
 R531: - e^1_6+9_copy1 + e^1_12+3_copy2 <= 0
 R532: e^1_6+9_copy1 - e^1_12+3_copy1 - e^1_12+3_copy2 <= 0
 R533: - e^1_7+14_copy1 + e^1_12+9_copy1 <= 0
 R534: - e^1_7+14_copy1 + e^1_12+9_copy2 <= 0
 R535: e^1_7+14_copy1 - e^1_12+9_copy1 - e^1_12+9_copy2 <= 0
 R536: - e^1_7+3_copy1 + e^1_12+14_copy1 <= 0
 R537: - e^1_7+3_copy1 + e^1_12+14_copy2 <= 0
 R538: e^1_7+3_copy1 - e^1_12+14_copy1 - e^1_12+14_copy2 <= 0
 R539: f^1_12 - e^1_12+3_copy2 - e^1_12+9_copy2 - e^1_12+14_copy2 = 0
 R540: f^1_12 - e^1_12+9_copy2 - e^1_12+14_copy2 >= 0
 R541: - e^1_7+9_copy1 + e^1_13+3_copy1 <= 0
 R542: - e^1_7+9_copy1 + e^1_13+3_copy2 <= 0
 R543: e^1_7+9_copy1 - e^1_13+3_copy1 - e^1_13+3_copy2 <= 0
 R544: - e^1_8+14_copy1 + e^1_13+9_copy1 <= 0
 R545: - e^1_8+14_copy1 + e^1_13+9_copy2 <= 0
 R546: e^1_8+14_copy1 - e^1_13+9_copy1 - e^1_13+9_copy2 <= 0
 R547: - e^1_8+3_copy1 + e^1_13+14_copy1 <= 0
 R548: - e^1_8+3_copy1 + e^1_13+14_copy2 <= 0
 R549: e^1_8+3_copy1 - e^1_13+14_copy1 - e^1_13+14_copy2 <= 0
 R550: f^1_13 - e^1_13+3_copy2 - e^1_13+9_copy2 - e^1_13+14_copy2 = 0
 R551: f^1_13 - e^1_13+9_copy2 - e^1_13+14_copy2 >= 0
 R552: - e^1_8+9_copy1 + e^1_14+3_copy1 <= 0
 R553: - e^1_8+9_copy1 + e^1_14+3_copy2 <= 0
 R554: e^1_8+9_copy1 - e^1_14+3_copy1 - e^1_14+3_copy2 <= 0
 R555: - e^1_9+14_copy1 + e^1_14+9_copy1 <= 0
 R556: - e^1_9+14_copy1 + e^1_14+9_copy2 <= 0
 R557: e^1_9+14_copy1 - e^1_14+9_copy1 - e^1_14+9_copy2 <= 0
 R558: - e^1_9+3_copy1 + e^1_14+14_copy1 <= 0
 R559: - e^1_9+3_copy1 + e^1_14+14_copy2 <= 0
 R560: e^1_9+3_copy1 - e^1_14+14_copy1 - e^1_14+14_copy2 <= 0
 R561: f^1_14 - e^1_14+3_copy2 - e^1_14+9_copy2 - e^1_14+14_copy2 = 0
 R562: f^1_14 - e^1_14+9_copy2 - e^1_14+14_copy2 >= 0
 R563: - e^1_9+9_copy1 + e^1_15+3_copy1 <= 0
 R564: - e^1_9+9_copy1 + e^1_15+3_copy2 <= 0
 R565: e^1_9+9_copy1 - e^1_15+3_copy1 - e^1_15+3_copy2 <= 0
 R566: - e^1_10+14_copy1 + e^1_15+9_copy1 <= 0
 R567: - e^1_10+14_copy1 + e^1_15+9_copy2 <= 0
 R568: e^1_10+14_copy1 - e^1_15+9_copy1 - e^1_15+9_copy2 <= 0
 R569: - e^1_10+3_copy1 + e^1_15+14_copy1 <= 0
 R570: - e^1_10+3_copy1 + e^1_15+14_copy2 <= 0
 R571: e^1_10+3_copy1 - e^1_15+14_copy1 - e^1_15+14_copy2 <= 0
 R572: f^1_15 - e^1_15+3_copy2 - e^1_15+9_copy2 - e^1_15+14_copy2 = 0
 R573: f^1_15 - e^1_15+9_copy2 - e^1_15+14_copy2 >= 0
 R574: e^1_13+3_copy1 = 0
 R575: e^1_14+3_copy1 = 0
 R576: e^1_15+3_copy1 = 0
 R577: e^1_10+9_copy1 = 0
 R578: e^1_11+9_copy1 = 0
 R579: e^1_12+9_copy1 = 0
 R580: e^1_13+9_copy1 = 0
 R581: e^1_14+9_copy1 = 0
 R582: e^1_15+9_copy1 = 0
 R583: e^1_11+14_copy1 = 0
 R584: e^1_12+14_copy1 = 0
 R585: e^1_13+14_copy1 = 0
 R586: e^1_14+14_copy1 = 0
 R587: e^1_15+14_copy1 = 0
 R588: e^1_11+3_copy1 = 0
 R589: e^1_12+3_copy1 = 0
 R590: - f^1_0 + f^1_0_copy1 <= 0
 R591: - f^1_0 + f^1_0_copy2 <= 0
 R592: f^1_0 - f^1_0_copy1 - f^1_0_copy2 <= 0
 R593: g^1_0 - f^1_0_copy2 = 0
 R594: g^1_0 - RK^0_0_copy1 = 0
 R595: - f^1_1 + f^1_1_copy1 <= 0
 R596: - f^1_1 + f^1_1_copy2 <= 0
 R597: f^1_1 - f^1_1_copy1 - f^1_1_copy2 <= 0
 R598: g^1_1 - f^1_1_copy2 = 0
 R599: g^1_1 - RK^0_1_copy1 = 0
 R600: - f^1_2 + f^1_2_copy1 <= 0
 R601: - f^1_2 + f^1_2_copy2 <= 0
 R602: f^1_2 - f^1_2_copy1 - f^1_2_copy2 <= 0
 R603: g^1_2 - f^1_2_copy2 = 0
 R604: g^1_2 - RK^0_2_copy1 = 0
 R605: - f^1_3 + f^1_3_copy1 <= 0
 R606: - f^1_3 + f^1_3_copy2 <= 0
 R607: f^1_3 - f^1_3_copy1 - f^1_3_copy2 <= 0
 R608: g^1_3 - f^1_3_copy2 = 0
 R609: g^1_3 - RK^0_3_copy1 = 0
 R610: - f^1_4 + f^1_4_copy1 <= 0
 R611: - f^1_4 + f^1_4_copy2 <= 0
 R612: f^1_4 - f^1_4_copy1 - f^1_4_copy2 <= 0
 R613: g^1_4 - f^1_4_copy2 = 0
 R614: g^1_4 - RK^0_4_copy1 = 0
 R615: - f^1_5 + f^1_5_copy1 <= 0
 R616: - f^1_5 + f^1_5_copy2 <= 0
 R617: f^1_5 - f^1_5_copy1 - f^1_5_copy2 <= 0
 R618: g^1_5 - f^1_5_copy2 = 0
 R619: g^1_5 - RK^0_5_copy1 = 0
 R620: - f^1_6 + f^1_6_copy1 <= 0
 R621: - f^1_6 + f^1_6_copy2 <= 0
 R622: f^1_6 - f^1_6_copy1 - f^1_6_copy2 <= 0
 R623: g^1_6 - f^1_6_copy2 = 0
 R624: g^1_6 - RK^0_6_copy1 = 0
 R625: - f^1_7 + f^1_7_copy1 <= 0
 R626: - f^1_7 + f^1_7_copy2 <= 0
 R627: f^1_7 - f^1_7_copy1 - f^1_7_copy2 <= 0
 R628: g^1_7 - f^1_7_copy2 = 0
 R629: g^1_7 - RK^0_7_copy1 = 0
 R630: - f^1_8 + f^1_8_copy1 <= 0
 R631: - f^1_8 + f^1_8_copy2 <= 0
 R632: f^1_8 - f^1_8_copy1 - f^1_8_copy2 <= 0
 R633: g^1_8 - f^1_8_copy2 = 0
 R634: g^1_8 - RK^0_8_copy1 = 0
 R635: - f^1_9 + f^1_9_copy1 <= 0
 R636: - f^1_9 + f^1_9_copy2 <= 0
 R637: f^1_9 - f^1_9_copy1 - f^1_9_copy2 <= 0
 R638: g^1_9 - f^1_9_copy2 = 0
 R639: g^1_9 - RK^0_9_copy1 = 0
 R640: - f^1_10 + f^1_10_copy1 <= 0
 R641: - f^1_10 + f^1_10_copy2 <= 0
 R642: f^1_10 - f^1_10_copy1 - f^1_10_copy2 <= 0
 R643: g^1_10 - f^1_10_copy2 = 0
 R644: g^1_10 - RK^0_10_copy1 = 0
 R645: - f^1_11 + f^1_11_copy1 <= 0
 R646: - f^1_11 + f^1_11_copy2 <= 0
 R647: f^1_11 - f^1_11_copy1 - f^1_11_copy2 <= 0
 R648: g^1_11 - f^1_11_copy2 = 0
 R649: g^1_11 - RK^0_11_copy1 = 0
 R650: - f^1_12 + f^1_12_copy1 <= 0
 R651: - f^1_12 + f^1_12_copy2 <= 0
 R652: f^1_12 - f^1_12_copy1 - f^1_12_copy2 <= 0
 R653: g^1_12 - f^1_12_copy2 = 0
 R654: g^1_12 - RK^0_12_copy1 = 0
 R655: - f^1_13 + f^1_13_copy1 <= 0
 R656: - f^1_13 + f^1_13_copy2 <= 0
 R657: f^1_13 - f^1_13_copy1 - f^1_13_copy2 <= 0
 R658: g^1_13 - f^1_13_copy2 = 0
 R659: g^1_13 - RK^0_13_copy1 = 0
 R660: - f^1_14 + f^1_14_copy1 <= 0
 R661: - f^1_14 + f^1_14_copy2 <= 0
 R662: f^1_14 - f^1_14_copy1 - f^1_14_copy2 <= 0
 R663: g^1_14 - f^1_14_copy2 = 0
 R664: g^1_14 - RK^0_14_copy1 = 0
 R665: - f^1_15 + f^1_15_copy1 <= 0
 R666: - f^1_15 + f^1_15_copy2 <= 0
 R667: f^1_15 - f^1_15_copy1 - f^1_15_copy2 <= 0
 R668: g^1_15 - f^1_15_copy2 = 0
 R669: g^1_15 - RK^0_15_copy1 = 0
 R670: L^1_0 - R^0_0_copy1 >= 0
 R671: - g^1_0 + L^1_0 - R^0_0_copy1 = 0
 R672: L^1_1 - R^0_1_copy1 >= 0
 R673: - g^1_1 + L^1_1 - R^0_1_copy1 = 0
 R674: L^1_2 - R^0_2_copy1 >= 0
 R675: - g^1_2 + L^1_2 - R^0_2_copy1 = 0
 R676: L^1_3 - R^0_3_copy1 >= 0
 R677: - g^1_3 + L^1_3 - R^0_3_copy1 = 0
 R678: L^1_4 - R^0_4_copy1 >= 0
 R679: - g^1_4 + L^1_4 - R^0_4_copy1 = 0
 R680: L^1_5 - R^0_5_copy1 >= 0
 R681: - g^1_5 + L^1_5 - R^0_5_copy1 = 0
 R682: L^1_6 - R^0_6_copy1 >= 0
 R683: - g^1_6 + L^1_6 - R^0_6_copy1 = 0
 R684: L^1_7 - R^0_7_copy1 >= 0
 R685: - g^1_7 + L^1_7 - R^0_7_copy1 = 0
 R686: L^1_8 - R^0_8_copy1 >= 0
 R687: - g^1_8 + L^1_8 - R^0_8_copy1 = 0
 R688: L^1_9 - R^0_9_copy1 >= 0
 R689: - g^1_9 + L^1_9 - R^0_9_copy1 = 0
 R690: L^1_10 - R^0_10_copy1 >= 0
 R691: - g^1_10 + L^1_10 - R^0_10_copy1 = 0
 R692: L^1_11 - R^0_11_copy1 >= 0
 R693: - g^1_11 + L^1_11 - R^0_11_copy1 = 0
 R694: L^1_12 - R^0_12_copy1 >= 0
 R695: - g^1_12 + L^1_12 - R^0_12_copy1 = 0
 R696: L^1_13 - R^0_13_copy1 >= 0
 R697: - g^1_13 + L^1_13 - R^0_13_copy1 = 0
 R698: L^1_14 - R^0_14_copy1 >= 0
 R699: - g^1_14 + L^1_14 - R^0_14_copy1 = 0
 R700: L^1_15 - R^0_15_copy1 >= 0
 R701: - g^1_15 + L^1_15 - R^0_15_copy1 = 0
 R702: R^1_0 - L^0_0_copy1 >= 0
 R703: R^1_0 - L^0_0_copy1 - f^1_0_copy1 = 0
 R704: R^1_1 - L^0_1_copy1 >= 0
 R705: R^1_1 - L^0_1_copy1 - f^1_1_copy1 = 0
 R706: R^1_2 - L^0_2_copy1 >= 0
 R707: R^1_2 - L^0_2_copy1 - f^1_2_copy1 = 0
 R708: R^1_3 - L^0_3_copy1 >= 0
 R709: R^1_3 - L^0_3_copy1 - f^1_3_copy1 = 0
 R710: R^1_4 - L^0_4_copy1 >= 0
 R711: R^1_4 - L^0_4_copy1 - f^1_4_copy1 = 0
 R712: R^1_5 - L^0_5_copy1 >= 0
 R713: R^1_5 - L^0_5_copy1 - f^1_5_copy1 = 0
 R714: R^1_6 - L^0_6_copy1 >= 0
 R715: R^1_6 - L^0_6_copy1 - f^1_6_copy1 = 0
 R716: R^1_7 - L^0_7_copy1 >= 0
 R717: R^1_7 - L^0_7_copy1 - f^1_7_copy1 = 0
 R718: R^1_8 - L^0_8_copy1 >= 0
 R719: R^1_8 - L^0_8_copy1 - f^1_8_copy1 = 0
 R720: R^1_9 - L^0_9_copy1 >= 0
 R721: R^1_9 - L^0_9_copy1 - f^1_9_copy1 = 0
 R722: R^1_10 - L^0_10_copy1 >= 0
 R723: R^1_10 - L^0_10_copy1 - f^1_10_copy1 = 0
 R724: R^1_11 - L^0_11_copy1 >= 0
 R725: R^1_11 - L^0_11_copy1 - f^1_11_copy1 = 0
 R726: R^1_12 - L^0_12_copy1 >= 0
 R727: R^1_12 - L^0_12_copy1 - f^1_12_copy1 = 0
 R728: R^1_13 - L^0_13_copy1 >= 0
 R729: R^1_13 - L^0_13_copy1 - f^1_13_copy1 = 0
 R730: R^1_14 - L^0_14_copy1 >= 0
 R731: R^1_14 - L^0_14_copy1 - f^1_14_copy1 = 0
 R732: R^1_15 - L^0_15_copy1 >= 0
 R733: R^1_15 - L^0_15_copy1 - f^1_15_copy1 = 0
 R734: K_16 = 0
 R735: flag_16 = 0
 R736: K_17 = 0
 R737: flag_17 = 0
 R738: K_18 = 0
 R739: flag_18 = 0
 R740: K_19 = 0
 R741: flag_19 = 0
 R742: K_20 = 0
 R743: flag_20 = 0
 R744: K_21 = 0
 R745: flag_21 = 0
 R746: K_22 = 0
 R747: flag_22 = 0
 R748: K_23 = 0
 R749: flag_23 = 0
 R750: K_24 = 0
 R751: flag_24 = 0
 R752: K_25 = 0
 R753: flag_25 = 0
 R754: K_26 = 0
 R755: flag_26 = 0
 R756: K_27 = 0
 R757: flag_27 = 0
 R758: K_28 = 0
 R759: flag_28 = 0
 R760: K_29 = 0
 R761: flag_29 = 0
 R762: K_30 = 0
 R763: flag_30 = 0
 R764: K_31 = 0
 R765: flag_31 = 0
 R766: K_32 = 0
 R767: flag_32 = 0
 R768: K_33 = 0
 R769: flag_33 = 0
 R770: K_34 = 0
 R771: flag_34 = 0
 R772: K_35 = 0
 R773: flag_35 = 0
 R774: K_36 = 0
 R775: flag_36 = 0
 R776: K_37 = 0
 R777: flag_37 = 0
 R778: K_38 = 0
 R779: flag_38 = 0
 R780: K_39 = 0
 R781: flag_39 = 0
 R782: K_40 = 0
 R783: flag_40 = 0
 R784: K_41 = 0
 R785: flag_41 = 0
 R786: K_42 = 0
 R787: flag_42 = 0
 R788: K_43 = 0
 R789: flag_43 = 0
 R790: K_44 = 0
 R791: flag_44 = 0
 R792: K_45 = 0
 R793: flag_45 = 0
 R794: K_46 = 0
 R795: flag_46 = 0
 R796: K_47 = 0
 R797: flag_47 = 0
 R798: K_48 = 0
 R799: flag_48 = 0
 R800: K_49 = 0
 R801: flag_49 = 0
 R802: K_50 = 0
 R803: flag_50 = 0
 R804: K_51 = 0
 R805: flag_51 = 0
 R806: K_52 = 0
 R807: flag_52 = 0
 R808: K_53 = 0
 R809: flag_53 = 0
 R810: K_54 = 0
 R811: flag_54 = 0
 R812: K_55 = 0
 R813: flag_55 = 0
 R814: K_56 = 0
 R815: flag_56 = 0
 R816: K_57 = 0
 R817: flag_57 = 0
 R818: K_58 = 0
 R819: flag_58 = 0
 R820: K_59 = 0
 R821: flag_59 = 0
 R822: K_60 = 0
 R823: flag_60 = 0
 R824: K_61 = 0
 R825: flag_61 = 0
 R826: K_62 = 0
 R827: flag_62 = 0
 R828: K_63 = 0
 R829: flag_63 = 0
 R830: L^0_0 = 0
 R831: L^0_1 = 0
 R832: L^0_2 = 0
 R833: L^0_3 = 0
 R834: L^0_4 = 1
 R835: L^0_5 = 1
 R836: L^0_6 = 0
 R837: L^0_7 = 0
 R838: L^0_8 = 0
 R839: L^0_9 = 0
 R840: L^0_10 = 0
 R841: L^0_11 = 0
 R842: L^0_12 = 0
 R843: L^0_13 = 0
 R844: L^0_14 = 0
 R845: L^0_15 = 0
 R846: R^0_0 = 0
 R847: R^0_1 = 0
 R848: R^0_2 = 0
 R849: R^0_3 = 0
 R850: R^0_4 = 0
 R851: R^0_5 = 0
 R852: R^0_6 = 0
 R853: R^0_7 = 0
 R854: R^0_8 = 0
 R855: R^0_9 = 0
 R856: R^0_10 = 0
 R857: R^0_11 = 0
 R858: R^0_12 = 0
 R859: R^0_13 = 0
 R860: R^0_14 = 0
 R861: R^0_15 = 0
 R862: L^1_0 = 0
 R863: R^1_0 = 1
 R864: L^1_1 = 0
 R865: R^1_1 = 0
 R866: L^1_2 = 0
 R867: R^1_2 = 0
 R868: L^1_3 = 0
 R869: R^1_3 = 0
 R870: L^1_4 = 0
 R871: R^1_4 = 0
 R872: L^1_5 = 0
 R873: R^1_5 = 0
 R874: L^1_6 = 0
 R875: R^1_6 = 0
 R876: L^1_7 = 0
 R877: R^1_7 = 0
 R878: L^1_8 = 0
 R879: R^1_8 = 0
 R880: L^1_9 = 0
 R881: R^1_9 = 0
 R882: L^1_10 = 0
 R883: R^1_10 = 0
 R884: L^1_11 = 0
 R885: R^1_11 = 0
 R886: L^1_12 = 0
 R887: R^1_12 = 0
 R888: L^1_13 = 0
 R889: R^1_13 = 0
 R890: L^1_14 = 0
 R891: R^1_14 = 0
 R892: L^1_15 = 0
 R893: R^1_15 = 0
Bounds
 flag_0 <= 2
 flag_1 <= 2
 flag_2 <= 2
 flag_3 <= 2
 flag_4 <= 2
 flag_5 <= 2
 flag_6 <= 2
 flag_7 <= 2
 flag_8 <= 2
 flag_9 <= 2
 flag_10 <= 2
 flag_11 <= 2
 flag_12 <= 2
 flag_13 <= 2
 flag_14 <= 2
 flag_15 <= 2
 flag_16 <= 2
 flag_17 <= 2
 flag_18 <= 2
 flag_19 <= 2
 flag_20 <= 2
 flag_21 <= 2
 flag_22 <= 2
 flag_23 <= 2
 flag_24 <= 2
 flag_25 <= 2
 flag_26 <= 2
 flag_27 <= 2
 flag_28 <= 2
 flag_29 <= 2
 flag_30 <= 2
 flag_31 <= 2
 flag_32 <= 2
 flag_33 <= 2
 flag_34 <= 2
 flag_35 <= 2
 flag_36 <= 2
 flag_37 <= 2
 flag_38 <= 2
 flag_39 <= 2
 flag_40 <= 2
 flag_41 <= 2
 flag_42 <= 2
 flag_43 <= 2
 flag_44 <= 2
 flag_45 <= 2
 flag_46 <= 2
 flag_47 <= 2
 flag_48 <= 2
 flag_49 <= 2
 flag_50 <= 2
 flag_51 <= 2
 flag_52 <= 2
 flag_53 <= 2
 flag_54 <= 2
 flag_55 <= 2
 flag_56 <= 2
 flag_57 <= 2
 flag_58 <= 2
 flag_59 <= 2
 flag_60 <= 2
 flag_61 <= 2
 flag_62 <= 2
 flag_63 <= 2
Binaries
 L^0_0 R^0_0 L^0_1 R^0_1 L^0_2 R^0_2 L^0_3 R^0_3 L^0_4 R^0_4 L^0_5 R^0_5
 L^0_6 R^0_6 L^0_7 R^0_7 L^0_8 R^0_8 L^0_9 R^0_9 L^0_10 R^0_10 L^0_11
 R^0_11 L^0_12 R^0_12 L^0_13 R^0_13 L^0_14 R^0_14 L^0_15 R^0_15 K_0 K_1 K_2
 K_3 K_4 K_5 K_6 K_7 K_8 K_9 K_10 K_11 K_12 K_13 K_14 K_15 K_16 K_17 K_18
 K_19 K_20 K_21 K_22 K_23 K_24 K_25 K_26 K_27 K_28 K_29 K_30 K_31 K_32 K_33
 K_34 K_35 K_36 K_37 K_38 K_39 K_40 K_41 K_42 K_43 K_44 K_45 K_46 K_47 K_48
 K_49 K_50 K_51 K_52 K_53 K_54 K_55 K_56 K_57 K_58 K_59 K_60 K_61 K_62 K_63
 RK^0_0 a^1_0 b^1_0 c^1_0 e^1_0 f^1_0 g^1_0 L^1_0 R^1_0 RK^0_1 a^1_1 b^1_1
 c^1_1 e^1_1 f^1_1 g^1_1 L^1_1 R^1_1 RK^0_2 a^1_2 b^1_2 c^1_2 e^1_2 f^1_2
 g^1_2 L^1_2 R^1_2 RK^0_3 a^1_3 b^1_3 c^1_3 e^1_3 f^1_3 g^1_3 L^1_3 R^1_3
 RK^0_4 a^1_4 b^1_4 c^1_4 e^1_4 f^1_4 g^1_4 L^1_4 R^1_4 RK^0_5 a^1_5 b^1_5
 c^1_5 e^1_5 f^1_5 g^1_5 L^1_5 R^1_5 RK^0_6 a^1_6 b^1_6 c^1_6 e^1_6 f^1_6
 g^1_6 L^1_6 R^1_6 RK^0_7 a^1_7 b^1_7 c^1_7 e^1_7 f^1_7 g^1_7 L^1_7 R^1_7
 RK^0_8 a^1_8 b^1_8 c^1_8 e^1_8 f^1_8 g^1_8 L^1_8 R^1_8 RK^0_9 a^1_9 b^1_9
 c^1_9 e^1_9 f^1_9 g^1_9 L^1_9 R^1_9 RK^0_10 a^1_10 b^1_10 c^1_10 e^1_10
 f^1_10 g^1_10 L^1_10 R^1_10 RK^0_11 a^1_11 b^1_11 c^1_11 e^1_11 f^1_11
 g^1_11 L^1_11 R^1_11 RK^0_12 a^1_12 b^1_12 c^1_12 e^1_12 f^1_12 g^1_12
 L^1_12 R^1_12 RK^0_13 a^1_13 b^1_13 c^1_13 e^1_13 f^1_13 g^1_13 L^1_13
 R^1_13 RK^0_14 a^1_14 b^1_14 c^1_14 e^1_14 f^1_14 g^1_14 L^1_14 R^1_14
 RK^0_15 a^1_15 b^1_15 c^1_15 e^1_15 f^1_15 g^1_15 L^1_15 R^1_15 d^1_0
 d^1_1 d^1_2 d^1_3 d^1_4 d^1_5 d^1_6 d^1_7 d^1_8 d^1_9 d^1_10 d^1_11 d^1_12
 d^1_13 RK^0_0_copy1 RK^0_0_copy2 L^0_0_copy1 L^0_0_copy2 RK^0_1_copy1
 RK^0_1_copy2 L^0_1_copy1 L^0_1_copy2 RK^0_2_copy1 RK^0_2_copy2 L^0_2_copy1
 L^0_2_copy2 RK^0_3_copy1 RK^0_3_copy2 L^0_3_copy1 L^0_3_copy2 RK^0_4_copy1
 RK^0_4_copy2 L^0_4_copy1 L^0_4_copy2 RK^0_5_copy1 RK^0_5_copy2 L^0_5_copy1
 L^0_5_copy2 RK^0_6_copy1 RK^0_6_copy2 L^0_6_copy1 L^0_6_copy2 RK^0_7_copy1
 RK^0_7_copy2 L^0_7_copy1 L^0_7_copy2 RK^0_8_copy1 RK^0_8_copy2 L^0_8_copy1
 L^0_8_copy2 RK^0_9_copy1 RK^0_9_copy2 L^0_9_copy1 L^0_9_copy2
 RK^0_10_copy1 RK^0_10_copy2 L^0_10_copy1 L^0_10_copy2 RK^0_11_copy1
 RK^0_11_copy2 L^0_11_copy1 L^0_11_copy2 RK^0_12_copy1 RK^0_12_copy2
 L^0_12_copy1 L^0_12_copy2 RK^0_13_copy1 RK^0_13_copy2 L^0_13_copy1
 L^0_13_copy2 RK^0_14_copy1 RK^0_14_copy2 L^0_14_copy1 L^0_14_copy2
 RK^0_15_copy1 RK^0_15_copy2 L^0_15_copy1 L^0_15_copy2 R^0_0_copy1
 R^0_0_copy2 R^0_1_copy1 R^0_1_copy2 R^0_2_copy1 R^0_2_copy2 R^0_3_copy1
 R^0_3_copy2 R^0_4_copy1 R^0_4_copy2 R^0_5_copy1 R^0_5_copy2 R^0_6_copy1
 R^0_6_copy2 R^0_7_copy1 R^0_7_copy2 R^0_8_copy1 R^0_8_copy2 R^0_9_copy1
 R^0_9_copy2 R^0_10_copy1 R^0_10_copy2 R^0_11_copy1 R^0_11_copy2
 R^0_12_copy1 R^0_12_copy2 R^0_13_copy1 R^0_13_copy2 R^0_14_copy1
 R^0_14_copy2 R^0_15_copy1 R^0_15_copy2 c^1_0+1_copy1 c^1_0+1_copy2
 c^1_0+2_copy1 c^1_0+2_copy2 c^1_1+1_copy1 c^1_1+1_copy2 c^1_1+2_copy1
 c^1_1+2_copy2 c^1_2+1_copy1 c^1_2+1_copy2 c^1_2+2_copy1 c^1_2+2_copy2
 c^1_3+1_copy1 c^1_3+1_copy2 c^1_3+2_copy1 c^1_3+2_copy2 c^1_4+1_copy1
 c^1_4+1_copy2 c^1_4+2_copy1 c^1_4+2_copy2 c^1_5+1_copy1 c^1_5+1_copy2
 c^1_5+2_copy1 c^1_5+2_copy2 c^1_6+1_copy1 c^1_6+1_copy2 c^1_6+2_copy1
 c^1_6+2_copy2 c^1_7+1_copy1 c^1_7+1_copy2 c^1_7+2_copy1 c^1_7+2_copy2
 c^1_8+1_copy1 c^1_8+1_copy2 c^1_8+2_copy1 c^1_8+2_copy2 c^1_9+1_copy1
 c^1_9+1_copy2 c^1_9+2_copy1 c^1_9+2_copy2 c^1_10+1_copy1 c^1_10+1_copy2
 c^1_10+2_copy1 c^1_10+2_copy2 c^1_11+1_copy1 c^1_11+1_copy2 c^1_11+2_copy1
 c^1_11+2_copy2 c^1_12+1_copy1 c^1_12+1_copy2 c^1_12+2_copy1 c^1_12+2_copy2
 c^1_13+1_copy1 c^1_13+1_copy2 c^1_13+2_copy1 c^1_13+2_copy2 e^1_0+3_copy1
 e^1_0+3_copy2 e^1_0+9_copy1 e^1_0+9_copy2 e^1_0+14_copy1 e^1_0+14_copy2
 e^1_1+3_copy1 e^1_1+3_copy2 e^1_1+9_copy1 e^1_1+9_copy2 e^1_1+14_copy1
 e^1_1+14_copy2 e^1_2+3_copy1 e^1_2+3_copy2 e^1_2+9_copy1 e^1_2+9_copy2
 e^1_2+14_copy1 e^1_2+14_copy2 e^1_3+3_copy1 e^1_3+3_copy2 e^1_3+9_copy1
 e^1_3+9_copy2 e^1_3+14_copy1 e^1_3+14_copy2 e^1_4+3_copy1 e^1_4+3_copy2
 e^1_4+9_copy1 e^1_4+9_copy2 e^1_4+14_copy1 e^1_4+14_copy2 e^1_5+3_copy1
 e^1_5+3_copy2 e^1_5+9_copy1 e^1_5+9_copy2 e^1_5+14_copy1 e^1_5+14_copy2
 e^1_6+3_copy1 e^1_6+3_copy2 e^1_6+9_copy1 e^1_6+9_copy2 e^1_6+14_copy1
 e^1_6+14_copy2 e^1_7+3_copy1 e^1_7+3_copy2 e^1_7+9_copy1 e^1_7+9_copy2
 e^1_7+14_copy1 e^1_7+14_copy2 e^1_8+3_copy1 e^1_8+3_copy2 e^1_8+9_copy1
 e^1_8+9_copy2 e^1_8+14_copy1 e^1_8+14_copy2 e^1_9+3_copy1 e^1_9+3_copy2
 e^1_9+9_copy1 e^1_9+9_copy2 e^1_9+14_copy1 e^1_9+14_copy2 e^1_10+3_copy1
 e^1_10+3_copy2 e^1_10+9_copy1 e^1_10+9_copy2 e^1_10+14_copy1
 e^1_10+14_copy2 e^1_11+3_copy1 e^1_11+3_copy2 e^1_11+9_copy1
 e^1_11+9_copy2 e^1_11+14_copy1 e^1_11+14_copy2 e^1_12+3_copy1
 e^1_12+3_copy2 e^1_12+9_copy1 e^1_12+9_copy2 e^1_12+14_copy1
 e^1_12+14_copy2 e^1_13+3_copy1 e^1_13+3_copy2 e^1_13+9_copy1
 e^1_13+9_copy2 e^1_13+14_copy1 e^1_13+14_copy2 e^1_14+3_copy1
 e^1_14+3_copy2 e^1_14+9_copy1 e^1_14+9_copy2 e^1_14+14_copy1
 e^1_14+14_copy2 e^1_15+3_copy1 e^1_15+3_copy2 e^1_15+9_copy1
 e^1_15+9_copy2 e^1_15+14_copy1 e^1_15+14_copy2 f^1_0_copy1 f^1_0_copy2
 f^1_1_copy1 f^1_1_copy2 f^1_2_copy1 f^1_2_copy2 f^1_3_copy1 f^1_3_copy2
 f^1_4_copy1 f^1_4_copy2 f^1_5_copy1 f^1_5_copy2 f^1_6_copy1 f^1_6_copy2
 f^1_7_copy1 f^1_7_copy2 f^1_8_copy1 f^1_8_copy2 f^1_9_copy1 f^1_9_copy2
 f^1_10_copy1 f^1_10_copy2 f^1_11_copy1 f^1_11_copy2 f^1_12_copy1
 f^1_12_copy2 f^1_13_copy1 f^1_13_copy2 f^1_14_copy1 f^1_14_copy2
 f^1_15_copy1 f^1_15_copy2
Generals
 flag_0 flag_1 flag_2 flag_3 flag_4 flag_5 flag_6 flag_7 flag_8 flag_9
 flag_10 flag_11 flag_12 flag_13 flag_14 flag_15 flag_16 flag_17 flag_18
 flag_19 flag_20 flag_21 flag_22 flag_23 flag_24 flag_25 flag_26 flag_27
 flag_28 flag_29 flag_30 flag_31 flag_32 flag_33 flag_34 flag_35 flag_36
 flag_37 flag_38 flag_39 flag_40 flag_41 flag_42 flag_43 flag_44 flag_45
 flag_46 flag_47 flag_48 flag_49 flag_50 flag_51 flag_52 flag_53 flag_54
 flag_55 flag_56 flag_57 flag_58 flag_59 flag_60 flag_61 flag_62 flag_63
End
